sat
(:max-memory          18.20
 :memory              17.61
 :num-allocs          5610004
 :rlimit-count        149057
 :sls-constraints     665
 :sls-ddfw-flips      31243.00
 :sls-ddfw-reinits    2
 :sls-ddfw-restarts   6
 :sls-ddfw-shifts     18976.00
 :sls-euf-conflict    665
 :solve-eqs-elim-vars 4
 :solve-eqs-steps     8
 :time                0.05
 :total-time          0.05)
